
n_res = 4;
rcap = [29, 26, 159, 155];
rtype = [1, 1, 2, 2];
n_tasks = 100;
modes =  [{1, 2, 3}, {4, 5, 6}, {7, 8, 9}, {10, 11, 12}, {13, 14, 15}, {16, 17, 18}, {19, 20, 21}, {22, 23, 24}, {25, 26, 27}, {28, 29, 30}, {31, 32, 33}, {34, 35, 36}, {37, 38, 39}, {40, 41, 42}, {43, 44, 45}, {46, 47, 48}, {49, 50, 51}, {52, 53, 54}, {55, 56, 57}, {58, 59, 60}, {61, 62, 63}, {64, 65, 66}, {67, 68, 69}, {70, 71, 72}, {73, 74, 75}, {76, 77, 78}, {79, 80, 81}, {82, 83, 84}, {85, 86, 87}, {88, 89, 90}, {91, 92, 93}, {94, 95, 96}, {97, 98, 99}, {100, 101, 102}, {103, 104, 105}, {106, 107, 108}, {109, 110, 111}, {112, 113, 114}, {115, 116, 117}, {118, 119, 120}, {121, 122, 123}, {124, 125, 126}, {127, 128, 129}, {130, 131, 132}, {133, 134, 135}, {136, 137, 138}, {139, 140, 141}, {142, 143, 144}, {145, 146, 147}, {148, 149, 150}, {151, 152, 153}, {154, 155, 156}, {157, 158, 159}, {160, 161, 162}, {163, 164, 165}, {166, 167, 168}, {169, 170, 171}, {172, 173, 174}, {175, 176, 177}, {178, 179, 180}, {181, 182, 183}, {184, 185, 186}, {187, 188, 189}, {190, 191, 192}, {193, 194, 195}, {196, 197, 198}, {199, 200, 201}, {202, 203, 204}, {205, 206, 207}, {208, 209, 210}, {211, 212, 213}, {214, 215, 216}, {217, 218, 219}, {220, 221, 222}, {223, 224, 225}, {226, 227, 228}, {229, 230, 231}, {232, 233, 234}, {235, 236, 237}, {238, 239, 240}, {241, 242, 243}, {244, 245, 246}, {247, 248, 249}, {250, 251, 252}, {253, 254, 255}, {256, 257, 258}, {259, 260, 261}, {262, 263, 264}, {265, 266, 267}, {268, 269, 270}, {271, 272, 273}, {274, 275, 276}, {277, 278, 279}, {280, 281, 282}, {283, 284, 285}, {286, 287, 288}, {289, 290, 291}, {292, 293, 294}, {295, 296, 297}, {298, 299, 300}];
succ =  [{43, 32, 28, 18, 16, 15, 10}, {45, 40, 32, 30, 28, 27, 26, 23, 22}, {52, 49, 47, 46, 45, 44, 42, 41, 40, 39, 38, 36, 35, 34, 31, 28}, {55, 45, 40, 39, 38, 36, 34, 29, 22, 20}, {55, 51, 47, 40, 39, 34, 30, 27, 22, 21}, {49, 45, 41, 40, 38, 37, 34, 32, 29, 28, 26}, {63, 47, 44, 42, 40, 36, 34, 30, 28, 26}, {57, 54, 51, 49, 47, 41, 39, 36, 31, 27}, {52, 49, 48, 46, 44, 28, 18}, {65, 63, 59, 55, 47, 42, 40, 37, 34, 31, 30}, {72, 65, 63, 59, 58, 55, 54, 53, 50, 49, 48, 41, 40, 35, 34}, {65, 63, 60, 58, 56, 55, 52, 51, 50, 45, 42, 41, 37, 34}, {70, 63, 60, 59, 56, 55, 51, 46, 42, 37, 31}, {70, 60, 59, 56, 53, 44, 42, 41, 38, 31}, {72, 68, 66, 60, 57, 56, 55, 53, 50, 49, 48, 47, 46, 41, 38, 37}, {66, 61, 55, 50, 49, 47, 46, 39, 38, 36, 34}, {68, 63, 47, 43, 32, 30}, {72, 66, 65, 63, 59, 58, 57, 56, 54, 50, 45, 41, 35}, {70, 63, 57, 56, 54, 52, 47, 41, 31}, {72, 69, 68, 66, 65, 63, 62, 60, 57, 54, 53, 52, 50, 48, 47, 41}, {72, 70, 68, 66, 65, 60, 59, 56, 54, 53, 52, 50, 46, 41}, {72, 68, 66, 63, 60, 59, 52, 49, 46, 42, 37}, {66, 63, 60, 59, 58, 56, 51, 50, 48, 47, 34}, {72, 70, 66, 65, 62, 60, 58, 56, 52, 48, 41, 38}, {70, 69, 68, 66, 62, 51, 50, 48, 47, 44, 41}, {81, 72, 70, 68, 67, 62, 60, 59, 57, 56, 53, 48, 46}, {72, 67, 66, 65, 60, 56, 53, 52, 48, 44, 38}, {70, 69, 65, 64, 62, 61, 59, 58, 57, 55, 54, 53, 51}, {82, 78, 69, 68, 66, 64, 61, 53, 52, 51, 50, 46}, {74, 72, 66, 62, 60, 52, 49, 48, 41}, {85, 78, 77, 73, 72, 69, 68, 66, 64, 62, 58, 50, 48}, {78, 77, 73, 62, 56, 50, 48}, {92, 82, 81, 78, 76, 74, 72, 70, 59, 56, 48}, {84, 83, 81, 80, 79, 78, 75, 74, 73, 70, 69, 68, 67, 64, 62}, {84, 81, 77, 76, 75, 74, 73, 64, 62, 61, 60}, {83, 81, 80, 79, 78, 74, 72, 71, 70, 62, 53}, {92, 89, 85, 84, 83, 81, 79, 78, 76, 75, 74, 73, 67, 64}, {92, 86, 85, 84, 83, 82, 81, 78, 75, 74, 73, 71, 63}, {85, 84, 80, 79, 78, 74, 73, 67, 65, 62, 59}, {91, 83, 82, 81, 78, 77, 73, 71, 66, 56}, {92, 89, 85, 82, 81, 78, 75, 73, 67, 64, 61}, {86, 85, 81, 79, 73, 62, 57, 54}, {84, 80, 79, 77, 73, 67, 59, 54}, {89, 84, 78, 77, 73, 71, 61, 58}, {99, 89, 86, 83, 82, 81, 79, 77, 76, 74, 70, 68}, {89, 84, 79, 77, 75, 73, 58}, {89, 86, 83, 77, 76, 75, 73, 64}, {91, 89, 84, 80, 75, 71, 61}, {100, 90, 86, 80, 79, 76, 75, 70, 69}, {92, 91, 90, 89, 83, 81, 74, 67}, {86, 85, 83, 77, 72, 71}, {91, 89, 86, 85, 77, 71}, {100, 98, 96, 92, 91, 90, 86, 84, 73}, {96, 92, 91, 89, 88, 83, 75, 74}, {96, 92, 89, 81, 79, 78, 77}, {95, 86, 85, 80, 79, 69}, {98, 91, 88, 83, 82, 76, 74}, {91, 88, 83, 80, 76, 74}, {98, 97, 91, 89, 86, 71}, {100, 99, 96, 93, 89, 80, 78}, {99, 96, 90, 86, 83, 79}, {100, 99, 98, 97, 95, 91, 89, 88, 82}, {96, 91, 90, 89, 87, 80, 79}, {97, 91, 88, 71}, {98, 97, 96, 89, 88, 83}, {99, 97, 93, 89, 76}, {97, 96, 93, 87, 86}, {98, 96, 91, 90, 87}, {99, 98, 97, 96, 93, 89}, {98, 96, 95, 93, 88}, {100, 99, 96, 87}, {98, 96, 93, 89}, {93, 88, 87}, {100, 97, 95, 93}, {99, 98, 94, 93}, {96, 94, 87}, {98, 93, 90}, {88, 87}, {98, 94, 93}, {98, 97, 94}, {98, 94, 93}, {96, 94, 93}, {93, 87}, {93, 87}, {93, 90}, {88}, {95}, {94}, {94}, {97}, {93}, {99}, {}, {}, {}, {}, {}, {}, {}, {}];
n_opt = 300;
dur = [3, 3, 9, 2, 5, 9, 2, 6, 7, 2, 3, 6, 2, 6, 9, 3, 3, 4, 1, 5, 9, 7, 9, 9, 4, 8, 9, 1, 7, 8, 6, 6, 10, 1, 1, 9, 3, 9, 10, 1, 2, 8, 4, 7, 7, 3, 4, 10, 2, 5, 8, 3, 7, 7, 1, 1, 4, 1, 5, 7, 1, 8, 10, 4, 4, 8, 1, 2, 8, 2, 3, 4, 1, 5, 10, 1, 5, 8, 4, 8, 10, 5, 5, 6, 3, 6, 10, 3, 5, 7, 6, 7, 10, 2, 3, 10, 8, 8, 9, 1, 2, 3, 2, 6, 6, 2, 9, 9, 3, 4, 10, 3, 5, 8, 1, 2, 7, 3, 4, 7, 7, 8, 9, 1, 9, 10, 2, 5, 10, 1, 8, 10, 1, 3, 10, 3, 6, 7, 2, 7, 9, 2, 4, 9, 2, 4, 7, 3, 4, 5, 2, 3, 5, 1, 5, 6, 3, 5, 9, 5, 8, 10, 4, 5, 8, 1, 7, 7, 5, 6, 9, 3, 4, 8, 3, 6, 7, 4, 7, 10, 1, 2, 6, 3, 6, 8, 3, 7, 9, 1, 2, 3, 1, 2, 4, 3, 5, 10, 1, 4, 10, 4, 8, 10, 2, 3, 9, 3, 8, 10, 2, 8, 8, 3, 6, 10, 4, 4, 9, 3, 5, 7, 1, 8, 9, 1, 4, 9, 1, 7, 8, 1, 7, 7, 1, 2, 5, 4, 9, 9, 1, 2, 8, 1, 5, 9, 1, 10, 10, 5, 7, 8, 9, 10, 10, 1, 6, 10, 4, 4, 6, 2, 3, 7, 1, 3, 8, 3, 5, 10, 1, 6, 7, 5, 6, 10, 3, 4, 8, 2, 3, 9, 1, 5, 9, 6, 9, 10, 2, 5, 10, 2, 3, 5, 2, 9, 9, 2, 3, 5];
rreq = [|0, 0, 2, 3, 0, 1, 0, 0, 0, 3, 3, 3, 5, 0, 5, 5, 0, 0, 2, 1, 1, 4, 0, 3, 4, 0, 3, 0, 3, 0, 3, 0, 1, 4, 4, 0, 0, 3, 0, 0, 3, 1, 0, 0, 2, 5, 4, 3, 4, 3, 0, 4, 3, 0, 2, 0, 1, 0, 0, 0, 4, 3, 0, 0, 2, 0, 0, 3, 3, 3, 0, 0, 3, 3, 0, 0, 3, 3, 0, 0, 0, 5, 0, 1, 3, 2, 1, 0, 4, 4, 0, 4, 4, 0, 3, 0, 0, 1, 1, 5, 0, 0, 2, 0, 0, 0, 0, 1, 0, 0, 1, 4, 4, 0, 2, 1, 1, 2, 1, 0, 5, 3, 3, 3, 0, 0, 0, 3, 3, 3, 2, 0, 4, 2, 2, 3, 0, 3, 5, 4, 0, 0, 1, 0, 4, 0, 0, 0, 4, 0, 0, 0, 0, 0, 0, 2, 0, 4, 0, 5, 0, 2, 5, 0, 0, 0, 0, 3, 0, 4, 0, 2, 0, 0, 1, 1, 1, 5, 0, 3, 4, 0, 2, 0, 3, 0, 3, 1, 0, 0, 0, 3, 0, 0, 0, 0, 1, 0, 0, 2, 0, 2, 0, 2, 0, 0, 0, 5, 3, 2, 0, 0, 4, 0, 0, 2, 0, 2, 0, 3, 0, 1, 3, 3, 3, 0, 0, 0, 3, 2, 2, 3, 2, 1, 4, 4, 0, 0, 5, 0, 0, 0, 4, 4, 4, 3, 0, 3, 0, 0, 0, 1, 0, 3, 0, 4, 0, 2, 0, 0, 0, 0, 0, 3, 0, 3, 0, 0, 0, 0, 0, 4, 0, 3, 2, 0, 4, 0, 0, 1, 1, 0, 0, 0, 0, 2, 0, 0, 3, 2, 2, 0, 2, 0, 0, 0, 2, 0, 3, 1
 |3, 3, 0, 0, 1, 0, 4, 3, 3, 0, 0, 0, 0, 3, 0, 0, 4, 2, 0, 0, 0, 0, 4, 0, 0, 3, 0, 3, 0, 1, 0, 3, 0, 0, 0, 1, 4, 0, 4, 2, 0, 0, 3, 2, 0, 0, 0, 0, 0, 0, 2, 0, 0, 5, 0, 4, 0, 4, 2, 2, 0, 0, 1, 2, 0, 1, 3, 0, 0, 0, 2, 2, 0, 0, 1, 3, 0, 0, 2, 2, 2, 0, 3, 0, 0, 0, 0, 4, 0, 0, 1, 0, 0, 5, 0, 2, 4, 0, 0, 0, 2, 1, 0, 2, 1, 3, 3, 0, 4, 4, 0, 0, 0, 1, 0, 0, 0, 0, 0, 3, 0, 0, 0, 0, 2, 1, 4, 0, 0, 0, 0, 3, 0, 0, 0, 0, 3, 0, 0, 0, 1, 5, 0, 2, 0, 4, 4, 4, 0, 3, 3, 3, 1, 3, 3, 0, 4, 0, 2, 0, 5, 0, 0, 3, 2, 2, 2, 0, 4, 0, 3, 0, 3, 3, 0, 0, 0, 0, 2, 0, 0, 3, 0, 3, 0, 1, 0, 0, 3, 2, 2, 0, 1, 1, 1, 2, 0, 1, 5, 0, 4, 0, 4, 0, 5, 3, 2, 0, 0, 0, 2, 2, 0, 5, 4, 0, 4, 0, 3, 0, 3, 0, 0, 0, 0, 4, 3, 2, 0, 0, 0, 0, 0, 0, 0, 0, 3, 2, 0, 2, 3, 2, 0, 0, 0, 0, 4, 0, 3, 4, 2, 0, 3, 0, 3, 0, 2, 0, 3, 3, 2, 5, 3, 0, 4, 0, 4, 1, 1, 1, 3, 0, 1, 0, 0, 3, 0, 4, 3, 0, 0, 3, 4, 4, 3, 0, 3, 3, 0, 0, 0, 5, 0, 3, 3, 3, 0, 5, 0, 0
 |4, 0, 0, 2, 2, 2, 0, 3, 2, 0, 0, 0, 0, 0, 0, 6, 0, 0, 0, 0, 6, 0, 0, 6, 6, 6, 5, 0, 0, 0, 6, 0, 5, 0, 2, 2, 0, 0, 0, 0, 8, 0, 5, 0, 4, 0, 0, 7, 9, 4, 2, 0, 4, 4, 0, 4, 0, 7, 0, 1, 0, 3, 1, 0, 0, 6, 0, 0, 0, 0, 0, 0, 10, 0, 0, 0, 0, 4, 5, 3, 2, 0, 0, 0, 10, 0, 0, 3, 0, 0, 7, 7, 3, 0, 3, 0, 0, 0, 0, 0, 9, 0, 7, 6, 0, 4, 0, 2, 5, 3, 0, 5, 0, 1, 3, 0, 2, 7, 5, 2, 8, 8, 7, 0, 0, 0, 7, 7, 0, 0, 4, 3, 0, 0, 0, 4, 4, 3, 5, 0, 0, 0, 7, 6, 4, 4, 3, 0, 0, 3, 0, 0, 0, 2, 0, 2, 0, 0, 0, 8, 7, 7, 2, 2, 1, 8, 0, 0, 8, 0, 0, 3, 0, 2, 8, 4, 2, 0, 5, 3, 3, 2, 2, 9, 0, 0, 3, 3, 3, 6, 5, 5, 0, 0, 0, 0, 0, 0, 9, 0, 0, 6, 5, 0, 0, 8, 0, 0, 2, 0, 10, 0, 0, 3, 0, 1, 7, 0, 5, 2, 0, 0, 8, 0, 0, 3, 2, 0, 2, 2, 0, 8, 0, 8, 0, 2, 2, 0, 7, 4, 0, 7, 6, 8, 6, 5, 5, 0, 2, 0, 7, 0, 5, 3, 0, 2, 0, 0, 0, 9, 0, 0, 0, 3, 0, 0, 0, 5, 4, 0, 0, 0, 0, 2, 0, 2, 0, 0, 0, 8, 7, 7, 2, 1, 1, 8, 0, 0, 8, 0, 0, 3, 0, 2, 8, 4, 2, 0, 5, 3
 |0, 5, 2, 0, 0, 0, 4, 0, 0, 5, 2, 1, 6, 3, 1, 0, 5, 1, 5, 2, 0, 8, 8, 0, 0, 0, 0, 4, 3, 3, 0, 3, 0, 9, 0, 0, 2, 1, 1, 4, 0, 4, 0, 7, 0, 3, 2, 0, 0, 0, 0, 6, 0, 0, 3, 0, 1, 0, 4, 0, 6, 0, 0, 10, 7, 0, 8, 6, 5, 5, 4, 3, 0, 1, 1, 7, 3, 0, 0, 0, 0, 9, 7, 6, 0, 1, 1, 0, 6, 5, 0, 0, 0, 2, 0, 2, 3, 4, 3, 9, 0, 4, 0, 0, 1, 0, 5, 0, 0, 0, 2, 0, 3, 0, 0, 3, 0, 0, 0, 0, 0, 0, 0, 8, 6, 6, 0, 0, 2, 8, 0, 0, 8, 6, 5, 0, 0, 0, 0, 4, 2, 1, 0, 0, 0, 0, 0, 8, 8, 0, 3, 2, 2, 0, 8, 0, 5, 4, 4, 0, 0, 0, 0, 0, 0, 0, 3, 3, 0, 3, 3, 0, 3, 0, 0, 0, 0, 10, 0, 0, 0, 0, 0, 0, 4, 4, 0, 0, 0, 0, 0, 0, 4, 3, 2, 10, 10, 10, 0, 5, 1, 0, 0, 4, 7, 0, 1, 8, 0, 6, 0, 7, 4, 0, 7, 0, 0, 5, 0, 0, 6, 5, 0, 2, 1, 0, 0, 9, 0, 0, 2, 0, 3, 0, 4, 0, 0, 8, 0, 0, 5, 0, 0, 0, 0, 0, 0, 3, 0, 5, 0, 1, 0, 0, 2, 0, 6, 3, 7, 0, 2, 10, 4, 0, 9, 9, 8, 0, 0, 3, 3, 3, 2, 0, 8, 0, 5, 4, 4, 0, 0, 0, 0, 0, 0, 0, 3, 2, 0, 3, 2, 0, 3, 0, 0, 0, 0, 10, 0, 0|];